Ti8 O16
1.0
5.181075 0.000000 0.000000
0.000000 5.511824 0.000000
0.000000 0.000000 9.273935
Ti O
8 16
direct
0.138146 0.407265 0.371013 Ti
0.638146 0.592735 0.128987 Ti
0.361854 0.907265 0.628987 Ti
0.861854 0.092735 0.871013 Ti
0.861854 0.592735 0.628987 Ti
0.361854 0.407265 0.871013 Ti
0.638146 0.092735 0.371013 Ti
0.138146 0.907265 0.128987 Ti
0.464315 0.391862 0.270273 O
0.964315 0.608138 0.229727 O
0.035685 0.891862 0.729727 O
0.535685 0.108138 0.770273 O
0.535685 0.608138 0.729727 O
0.035685 0.391862 0.770273 O
0.964315 0.108138 0.270273 O
0.464315 0.891862 0.229727 O
0.816566 0.851678 0.010307 O
0.316566 0.148322 0.489693 O
0.683434 0.351678 0.989693 O
0.183434 0.648322 0.510307 O
0.183434 0.148322 0.989693 O
0.683434 0.851678 0.510307 O
0.316566 0.648322 0.010307 O
0.816566 0.351678 0.489693 O
