Ti1 O1
1.0
0.000000 2.144685 2.144685
2.144685 0.000000 2.144685
2.144685 2.144685 0.000000
Ti O
1 1
direct
0.000000 0.000000 0.000000 Ti
0.500000 0.500000 0.500000 O
