Ti4 O8
1.0
4.914440 0.000000 0.000000
0.000000 4.854602 0.000000
0.000000 0.894628 5.013620
Ti O
4 8
direct
0.556362 0.723144 0.715719 Ti
0.056362 0.276856 0.784281 Ti
0.443638 0.276856 0.284281 Ti
0.943638 0.723144 0.215719 Ti
0.258487 0.552347 0.961829 O
0.758487 0.447653 0.538171 O
0.741513 0.447653 0.038171 O
0.241513 0.552347 0.461829 O
0.677434 0.937072 0.352503 O
0.177434 0.062928 0.147497 O
0.322566 0.062928 0.647497 O
0.822566 0.937072 0.852503 O
