Ti2 O1
1.0
1.491402 -2.583185 0.000000
1.491402 2.583185 0.000000
0.000000 0.000000 4.803530
Ti O
2 1
direct
0.333333 0.666667 0.733044 Ti
0.666667 0.333333 0.266956 Ti
0.000000 0.000000 0.000000 O
