&CONTROL
  pseudo_dir = '../../',
  restart_mode = 'from_scratch',
  wf_collect = .TRUE.,
/
&SYSTEM
  degauss = 0.002,
  ecutrho = 600.0,
  ecutwfc = 75.0,
  nspin = 1,
  occupations = 'smearing',
  smearing = 'gauss',
  ibrav = 0,
  nat = 80,
  ntyp = 3,
/
&ELECTRONS
  conv_thr = 8d-09,
  mixing_beta = 0.4,
/
&IONS
/
&CELL
/
ATOMIC_SPECIES
  O  15.9994 O.pbe-n-kjpaw_psl.0.1.UPF
  Ti  47.8670 ti_pbe_v1.4.uspp.F.UPF
  Ti+  47.8670 Ti.fch.upf
ATOMIC_POSITIONS crystal
  Ti+ 0.175234 0.175234 0.162760
  Ti 0.324766 0.324766 0.337240
  Ti 0.168708 0.168708 0.413817
  Ti 0.331292 0.331292 0.086183
  Ti 0.000000 0.000000 0.250000
  O 0.250000 0.250000 0.000000
  O 0.085901 0.085901 0.084313
  O 0.414099 0.414099 0.415687
  O 0.085510 0.085510 0.328288
  O 0.414491 0.414491 0.171712
  Ti 0.175234 0.175234 0.662760
  Ti 0.324765 0.324765 0.837240
  Ti 0.168708 0.168708 0.913817
  Ti 0.331292 0.331292 0.586183
  Ti -0.000000 -0.000000 0.750000
  O 0.250000 0.250000 0.500000
  O 0.085900 0.085900 0.584313
  O 0.414099 0.414099 0.915687
  O 0.085510 0.085510 0.828287
  O 0.414490 0.414490 0.671712
  Ti 0.175235 0.675235 0.162760
  Ti 0.324766 0.824766 0.337240
  Ti 0.168708 0.668708 0.413817
  Ti 0.331292 0.831292 0.086183
  Ti 0.000000 0.500000 0.250000
  O 0.250000 0.750000 0.000000
  O 0.085900 0.585900 0.084313
  O 0.414099 0.914099 0.415687
  O 0.085509 0.585510 0.328288
  O 0.414491 0.914491 0.171712
  Ti 0.175234 0.675234 0.662760
  Ti 0.324766 0.824766 0.837240
  Ti 0.168708 0.668708 0.913817
  Ti 0.331292 0.831292 0.586183
  Ti 0.000000 0.500000 0.750000
  O 0.250000 0.750000 0.500000
  O 0.085900 0.585900 0.584313
  O 0.414100 0.914100 0.915687
  O 0.085510 0.585510 0.828287
  O 0.414490 0.914490 0.671712
  Ti 0.675235 0.175235 0.162760
  Ti 0.824766 0.324766 0.337240
  Ti 0.668708 0.168708 0.413817
  Ti 0.831292 0.331292 0.086183
  Ti 0.500000 0.000000 0.250000
  O 0.750000 0.250000 0.000000
  O 0.585900 0.085900 0.084313
  O 0.914099 0.414099 0.415687
  O 0.585510 0.085509 0.328288
  O 0.914491 0.414491 0.171712
  Ti 0.675234 0.175234 0.662760
  Ti 0.824766 0.324766 0.837240
  Ti 0.668708 0.168708 0.913817
  Ti 0.831292 0.331292 0.586183
  Ti 0.500000 0.000000 0.750000
  O 0.750000 0.250000 0.500000
  O 0.585900 0.085900 0.584313
  O 0.914100 0.414100 0.915687
  O 0.585510 0.085510 0.828287
  O 0.914490 0.414490 0.671712
  Ti 0.675234 0.675234 0.162760
  Ti 0.824765 0.824765 0.337240
  Ti 0.668708 0.668708 0.413817
  Ti 0.831292 0.831292 0.086183
  Ti 0.500000 0.500000 0.250000
  O 0.750000 0.750000 0.000000
  O 0.585900 0.585900 0.084313
  O 0.914099 0.914099 0.415687
  O 0.585509 0.585509 0.328288
  O 0.914490 0.914490 0.171712
  Ti 0.675234 0.675234 0.662760
  Ti 0.824766 0.824766 0.837240
  Ti 0.668708 0.668708 0.913817
  Ti 0.831292 0.831292 0.586183
  Ti 0.500000 0.500000 0.750000
  O 0.750000 0.750000 0.500000
  O 0.585900 0.585900 0.584313
  O 0.914100 0.914100 0.915687
  O 0.585510 0.585510 0.828287
  O 0.914490 0.914490 0.671712
K_POINTS automatic
  1 1 1 0 0 0
CELL_PARAMETERS angstrom
  4.173722 9.341052 0.000000
  -4.173722 9.341052 0.000000
  0.000000 3.478844 11.162240