Ti2 O4
1.0
4.653272 0.000000 0.000000
0.000000 4.653272 0.000000
0.000000 0.000000 2.969203
Ti O
2 4
direct
0.500000 0.500000 0.500000 Ti
0.000000 0.000000 0.000000 Ti
0.804580 0.195420 0.500000 O
0.195420 0.804580 0.500000 O
0.304580 0.304580 0.000000 O
0.695420 0.695420 0.000000 O
