Ti4 O8
1.0
5.067808 -3.010778 0.000000
5.067808 3.010778 0.000000
3.279109 0.000000 4.898460
Ti O
4 8
direct
0.242348 0.242348 0.242348 Ti
0.631036 0.099237 0.631036 Ti
0.631036 0.631036 0.099237 Ti
0.099237 0.631036 0.631036 Ti
0.870171 0.365406 0.365406 O
0.365406 0.365406 0.870171 O
0.365406 0.870171 0.365406 O
0.382261 0.382261 0.382261 O
0.865247 0.865247 0.865247 O
0.873676 0.423051 0.873676 O
0.873676 0.873676 0.423051 O
0.423051 0.873676 0.873676 O
