Ti2 O4
1.0
-1.901355 1.901355 4.873876
1.901355 -1.901355 4.873876
1.901355 1.901355 -4.873876
Ti O
2 4
direct
0.750000 0.250000 0.500000 Ti
0.000000 0.000000 0.000000 Ti
0.956163 0.456163 0.500000 O
0.793837 0.793837 0.000000 O
0.543837 0.043837 0.500000 O
0.206163 0.206163 0.000000 O
