Ti4 O5
1.0
-3.319020 3.319020 2.093880
3.319020 -3.319020 2.093880
3.319020 3.319020 -2.093880
Ti O
4 5
direct
0.392432 0.783563 0.175995 Ti
0.783563 0.607568 0.391132 Ti
0.216437 0.392432 0.608868 Ti
0.607568 0.216437 0.824005 Ti
0.091458 0.689998 0.781455 O
0.689998 0.908542 0.598540 O
0.310002 0.091458 0.401460 O
0.908542 0.310002 0.218545 O
0.500000 0.500000 0.000000 O
