Sm8 Cu4 As12 O4
1.0
3.991376 0.000000 0.000000
0.000000 3.999568 0.000000
0.000000 0.000000 34.822541
Sm Cu As O
8 4 12 4
direct
0.750000 0.751232 0.966883 Sm
0.250000 0.251232 0.533117 Sm
0.750000 0.748768 0.466883 Sm
0.250000 0.248768 0.033117 Sm
0.250000 0.307973 0.824177 Sm
0.750000 0.807973 0.675823 Sm
0.250000 0.192027 0.324177 Sm
0.750000 0.692027 0.175823 Sm
0.250000 0.808380 0.750036 Cu
0.750000 0.308380 0.749964 Cu
0.250000 0.691620 0.250036 Cu
0.750000 0.191620 0.249964 Cu
0.250000 0.830992 0.892979 As
0.750000 0.330992 0.607021 As
0.250000 0.669008 0.392979 As
0.750000 0.169008 0.107021 As
0.750000 0.251288 0.894095 As
0.250000 0.751288 0.605905 As
0.750000 0.248712 0.394095 As
0.250000 0.748712 0.105905 As
0.250000 0.309052 0.705477 As
0.750000 0.809052 0.794523 As
0.250000 0.190948 0.205477 As
0.750000 0.690948 0.294523 As
0.750000 0.251299 0.000135 O
0.250000 0.751299 0.499865 O
0.750000 0.248701 0.500135 O
0.250000 0.748701 0.999865 O
