Ti4 O6
1.0
4.889357 -2.556396 0.000000
4.889357 2.556396 0.000000
3.552747 0.000000 4.221251
Ti O
4 6
direct
0.154460 0.154460 0.154460 Ti
0.845540 0.845540 0.845540 Ti
0.654460 0.654461 0.654460 Ti
0.345540 0.345540 0.345540 Ti
0.250000 0.937722 0.562278 O
0.562278 0.250000 0.937722 O
0.937722 0.562278 0.250000 O
0.750000 0.062278 0.437722 O
0.437722 0.750000 0.062278 O
0.062278 0.437722 0.750000 O
